(set-info :smt-lib-version 2.6)
(set-logic QF_LRA)
(set-info :source |
TLP-GP automated DTP to SMT-LIB encoding for planning
by F.Maris and P.Regnier, IRIT - Universite Paul Sabatier, Toulouse

|)
(set-info :category "industrial")
(set-info :status sat)
(declare-fun St_spy_variable () Real)
(declare-fun t_Init_0 () Real)
(declare-fun t_Goal_4 () Real)
(declare-fun t_C_rb_ga1_gc1_3 () Real)
(declare-fun t_A_ra_ga2_gb1_1 () Real)
(declare-fun t_B_ra_rb_gb2_2 () Real)
(declare-fun t_C_rb_ga1_gc2_3 () Real)
(declare-fun t_A_ra_ga3_gb1_1 () Real)
(declare-fun t_B_ra_rb_gb3_2 () Real)
(declare-fun t_C_rb_ga1_gc3_3 () Real)
(declare-fun t_A_ra_ga4_gb1_1 () Real)
(declare-fun t_B_ra_rb_gb4_2 () Real)
(declare-fun t_A_ra_ga1_gb1_1 () Real)
(declare-fun t_B_ra_rb_gb1_2 () Real)
(declare-fun t_C_rb_ga1_gc4_3 () Real)
(assert (let ((?v_7 (- t_Goal_4 t_C_rb_ga1_gc1_3)) (?v_8 (- t_Goal_4 t_A_ra_ga2_gb1_1)) (?v_14 (- t_Goal_4 t_B_ra_rb_gb2_2)) (?v_16 (- t_Goal_4 t_C_rb_ga1_gc2_3)) (?v_17 (- t_Goal_4 t_A_ra_ga3_gb1_1)) (?v_19 (- t_Goal_4 t_B_ra_rb_gb3_2)) (?v_21 (- t_Goal_4 t_C_rb_ga1_gc3_3)) (?v_22 (- t_Goal_4 t_A_ra_ga4_gb1_1)) (?v_24 (- t_Goal_4 t_B_ra_rb_gb4_2)) (?v_0 (- t_Goal_4 t_A_ra_ga1_gb1_1)) (?v_1 (- t_Goal_4 t_B_ra_rb_gb1_2)) (?v_27 (- t_Goal_4 t_C_rb_ga1_gc4_3)) (?v_25 (- t_B_ra_rb_gb1_2 t_A_ra_ga1_gb1_1))) (let ((?v_9 (< ?v_25 5)) (?v_23 (- t_B_ra_rb_gb4_2 t_A_ra_ga1_gb1_1))) (let ((?v_10 (< ?v_23 5)) (?v_18 (- t_B_ra_rb_gb3_2 t_A_ra_ga1_gb1_1))) (let ((?v_11 (< ?v_18 5)) (?v_13 (- t_B_ra_rb_gb2_2 t_A_ra_ga1_gb1_1))) (let ((?v_12 (< ?v_13 5)) (?v_26 (- t_C_rb_ga1_gc4_3 t_B_ra_rb_gb1_2))) (let ((?v_2 (< ?v_26 4)) (?v_20 (- t_C_rb_ga1_gc3_3 t_B_ra_rb_gb1_2))) (let ((?v_3 (< ?v_20 4)) (?v_15 (- t_C_rb_ga1_gc2_3 t_B_ra_rb_gb1_2))) (let ((?v_4 (< ?v_15 4)) (?v_6 (- t_C_rb_ga1_gc1_3 t_B_ra_rb_gb1_2))) (let ((?v_5 (< ?v_6 4)) (?v_28 (- t_A_ra_ga4_gb1_1 t_A_ra_ga1_gb1_1))) (let ((?v_100 (< ?v_28 5)) (?v_99 (> ?v_28 5))) (let ((?v_65 (or ?v_100 ?v_99)) (?v_29 (- t_A_ra_ga3_gb1_1 t_A_ra_ga1_gb1_1))) (let ((?v_89 (< ?v_29 5)) (?v_88 (> ?v_29 5))) (let ((?v_66 (or ?v_89 ?v_88)) (?v_30 (- t_A_ra_ga2_gb1_1 t_A_ra_ga1_gb1_1))) (let ((?v_62 (< ?v_30 5)) (?v_61 (> ?v_30 5)) (?v_45 (< ?v_25 1)) (?v_31 (> ?v_25 1))) (let ((?v_67 (or ?v_45 ?v_31)) (?v_41 (< ?v_0 6)) (?v_32 (- t_A_ra_ga1_gb1_1 t_A_ra_ga4_gb1_1))) (let ((?v_74 (> ?v_32 5)) (?v_33 (- t_A_ra_ga1_gb1_1 t_A_ra_ga3_gb1_1))) (let ((?v_75 (> ?v_33 5)) (?v_34 (- t_A_ra_ga1_gb1_1 t_A_ra_ga2_gb1_1))) (let ((?v_57 (> ?v_34 5)) (?v_69 (- t_C_rb_ga1_gc4_3 t_A_ra_ga1_gb1_1))) (let ((?v_68 (< ?v_69 4)) (?v_71 (- t_C_rb_ga1_gc3_3 t_A_ra_ga1_gb1_1))) (let ((?v_70 (< ?v_71 4)) (?v_73 (- t_C_rb_ga1_gc2_3 t_A_ra_ga1_gb1_1))) (let ((?v_72 (< ?v_73 4)) (?v_55 (- t_C_rb_ga1_gc1_3 t_A_ra_ga1_gb1_1))) (let ((?v_56 (< ?v_55 4)) (?v_35 (- t_B_ra_rb_gb4_2 t_B_ra_rb_gb1_2))) (let ((?v_102 (< ?v_35 4)) (?v_101 (> ?v_35 4))) (let ((?v_42 (or ?v_102 ?v_101)) (?v_36 (- t_B_ra_rb_gb3_2 t_B_ra_rb_gb1_2))) (let ((?v_95 (< ?v_36 4)) (?v_94 (> ?v_36 4))) (let ((?v_43 (or ?v_95 ?v_94)) (?v_37 (- t_B_ra_rb_gb2_2 t_B_ra_rb_gb1_2))) (let ((?v_79 (< ?v_37 4)) (?v_78 (> ?v_37 4))) (let ((?v_44 (or ?v_79 ?v_78)) (?v_38 (- t_B_ra_rb_gb1_2 t_B_ra_rb_gb4_2))) (let ((?v_52 (> ?v_38 4)) (?v_39 (- t_B_ra_rb_gb1_2 t_B_ra_rb_gb3_2))) (let ((?v_53 (> ?v_39 4)) (?v_40 (- t_B_ra_rb_gb1_2 t_B_ra_rb_gb2_2))) (let ((?v_54 (> ?v_40 4)) (?v_47 (- t_B_ra_rb_gb1_2 t_A_ra_ga4_gb1_1))) (let ((?v_46 (> ?v_47 1)) (?v_49 (- t_B_ra_rb_gb1_2 t_A_ra_ga3_gb1_1))) (let ((?v_48 (> ?v_49 1)) (?v_51 (- t_B_ra_rb_gb1_2 t_A_ra_ga2_gb1_1))) (let ((?v_50 (> ?v_51 1)) (?v_82 (or ?v_31 ?v_45)) (?v_98 (< ?v_47 1))) (let ((?v_83 (or ?v_46 ?v_98)) (?v_87 (< ?v_49 1))) (let ((?v_84 (or ?v_48 ?v_87)) (?v_60 (< ?v_51 1)) (?v_58 (- t_A_ra_ga4_gb1_1 t_A_ra_ga2_gb1_1)) (?v_59 (- t_A_ra_ga3_gb1_1 t_A_ra_ga2_gb1_1)) (?v_63 (- t_A_ra_ga2_gb1_1 t_A_ra_ga4_gb1_1)) (?v_64 (- t_A_ra_ga2_gb1_1 t_A_ra_ga3_gb1_1)) (?v_91 (or ?v_68 (> ?v_69 4))) (?v_97 (> ?v_71 4))) (let ((?v_92 (or ?v_70 ?v_97)) (?v_85 (> ?v_73 4)) (?v_76 (- t_B_ra_rb_gb4_2 t_B_ra_rb_gb2_2)) (?v_77 (- t_B_ra_rb_gb3_2 t_B_ra_rb_gb2_2)) (?v_80 (- t_B_ra_rb_gb2_2 t_B_ra_rb_gb4_2)) (?v_81 (- t_B_ra_rb_gb2_2 t_B_ra_rb_gb3_2)) (?v_86 (- t_A_ra_ga4_gb1_1 t_A_ra_ga3_gb1_1)) (?v_90 (- t_A_ra_ga3_gb1_1 t_A_ra_ga4_gb1_1)) (?v_93 (- t_B_ra_rb_gb4_2 t_B_ra_rb_gb3_2)) (?v_96 (- t_B_ra_rb_gb3_2 t_B_ra_rb_gb4_2))) (and (= St_spy_variable (+ 1 t_Init_0)) (>= t_Goal_4 t_Init_0) (>= (- t_C_rb_ga1_gc1_3 t_Init_0) 0) (>= ?v_7 1) (>= (- t_A_ra_ga2_gb1_1 t_Init_0) 0) (>= ?v_8 5) (>= (- t_B_ra_rb_gb2_2 t_Init_0) 0) (>= ?v_14 4) (>= (- t_C_rb_ga1_gc2_3 t_Init_0) 0) (>= ?v_16 1) (>= (- t_A_ra_ga3_gb1_1 t_Init_0) 0) (>= ?v_17 5) (>= (- t_B_ra_rb_gb3_2 t_Init_0) 0) (>= ?v_19 4) (>= (- t_C_rb_ga1_gc3_3 t_Init_0) 0) (>= ?v_21 1) (>= (- t_A_ra_ga4_gb1_1 t_Init_0) 0) (>= ?v_22 5) (>= (- t_B_ra_rb_gb4_2 t_Init_0) 0) (>= ?v_24 4) (>= (- t_A_ra_ga1_gb1_1 t_Init_0) 0) (>= ?v_0 5) (>= (- t_B_ra_rb_gb1_2 t_Init_0) 0) (>= ?v_1 4) (>= (- t_C_rb_ga1_gc4_3 t_Init_0) 0) (>= ?v_27 1) ?v_9 ?v_10 ?v_11 ?v_12 (>= ?v_0 6) ?v_2 ?v_3 ?v_4 ?v_5 (>= ?v_1 5) ?v_2 ?v_3 ?v_4 ?v_5 ?v_5 (>= ?v_6 0) (>= ?v_7 2) (>= ?v_8 6) ?v_9 ?v_10 ?v_11 ?v_12 ?v_12 (>= ?v_13 0) (>= ?v_14 5) ?v_2 ?v_3 ?v_4 ?v_4 (>= ?v_15 0) (>= ?v_16 2) (>= ?v_17 6) ?v_9 ?v_10 ?v_11 ?v_11 (>= ?v_18 0) (>= ?v_19 5) ?v_2 ?v_3 ?v_3 (>= ?v_20 0) (>= ?v_21 2) (>= ?v_22 6) ?v_9 ?v_10 ?v_10 (>= ?v_23 0) (>= ?v_24 5) ?v_9 (>= ?v_25 0) ?v_2 (>= ?v_26 0) (>= ?v_27 2) ?v_65 ?v_66 (or ?v_62 ?v_61) ?v_67 (or ?v_41 ?v_31) (or ?v_74 (< ?v_32 5)) (or ?v_75 (< ?v_33 5)) (or ?v_57 (< ?v_34 5)) (or ?v_68 (< ?v_27 2)) (or ?v_70 (< ?v_21 2)) (or ?v_72 (< ?v_16 2)) (or ?v_56 (< ?v_7 2)) ?v_42 ?v_43 ?v_44 (or ?v_52 (< ?v_38 4)) (or ?v_53 (< ?v_39 4)) (or ?v_54 (< ?v_40 4)) (or ?v_31 ?v_41) (or ?v_46 (< ?v_22 6)) (or ?v_48 (< ?v_17 6)) (or ?v_50 (< ?v_8 6)) ?v_42 ?v_43 ?v_44 ?v_82 ?v_83 ?v_84 (or ?v_50 ?v_60) (or ?v_52 (< (- t_C_rb_ga1_gc1_3 t_B_ra_rb_gb4_2) 4)) (or ?v_53 (< (- t_C_rb_ga1_gc1_3 t_B_ra_rb_gb3_2) 4)) (or ?v_54 (< (- t_C_rb_ga1_gc1_3 t_B_ra_rb_gb2_2) 4)) (or (> ?v_55 4) ?v_56) (or (< ?v_51 5) ?v_57) (or (< (- t_B_ra_rb_gb4_2 t_A_ra_ga2_gb1_1) 5) ?v_57) (or (< ?v_58 5) (> ?v_58 5)) (or (< (- t_B_ra_rb_gb3_2 t_A_ra_ga2_gb1_1) 5) ?v_57) (or (< ?v_59 5) (> ?v_59 5)) (or (< (- t_B_ra_rb_gb2_2 t_A_ra_ga2_gb1_1) 5) ?v_57) (or ?v_60 ?v_50) (or ?v_61 ?v_62) (or (> ?v_63 5) (< ?v_63 5)) (or (> ?v_64 5) (< ?v_64 5)) ?v_65 ?v_66 ?v_67 ?v_91 ?v_92 (or ?v_72 ?v_85) (or ?v_74 (< (- t_B_ra_rb_gb2_2 t_A_ra_ga4_gb1_1) 5)) (or ?v_75 (< (- t_B_ra_rb_gb2_2 t_A_ra_ga3_gb1_1) 5)) (or (< (- t_C_rb_ga1_gc4_3 t_B_ra_rb_gb2_2) 4) ?v_54) (or (< ?v_76 4) (> ?v_76 4)) (or (< (- t_C_rb_ga1_gc3_3 t_B_ra_rb_gb2_2) 4) ?v_54) (or (< ?v_77 4) (> ?v_77 4)) (or (< (- t_C_rb_ga1_gc2_3 t_B_ra_rb_gb2_2) 4) ?v_54) (or ?v_78 ?v_79) (or (> ?v_80 4) (< ?v_80 4)) (or (> ?v_81 4) (< ?v_81 4)) ?v_42 ?v_43 ?v_82 ?v_83 ?v_84 (or ?v_52 (< (- t_C_rb_ga1_gc2_3 t_B_ra_rb_gb4_2) 4)) (or ?v_53 (< (- t_C_rb_ga1_gc2_3 t_B_ra_rb_gb3_2) 4)) (or ?v_85 ?v_72) (or (< ?v_49 5) ?v_75) (or (< (- t_B_ra_rb_gb4_2 t_A_ra_ga3_gb1_1) 5) ?v_75) (or (< ?v_86 5) (> ?v_86 5)) (or (< (- t_B_ra_rb_gb3_2 t_A_ra_ga3_gb1_1) 5) ?v_75) (or ?v_87 ?v_48) (or ?v_88 ?v_89) (or (> ?v_90 5) (< ?v_90 5)) ?v_65 ?v_67 ?v_91 ?v_92 (or ?v_74 (< (- t_B_ra_rb_gb3_2 t_A_ra_ga4_gb1_1) 5)) (or (< (- t_C_rb_ga1_gc4_3 t_B_ra_rb_gb3_2) 4) ?v_53) (or (< ?v_93 4) (> ?v_93 4)) (or (< (- t_C_rb_ga1_gc3_3 t_B_ra_rb_gb3_2) 4) ?v_53) (or ?v_94 ?v_95) (or (> ?v_96 4) (< ?v_96 4)) ?v_42 ?v_82 ?v_83 (or ?v_52 (< (- t_C_rb_ga1_gc3_3 t_B_ra_rb_gb4_2) 4)) (or ?v_97 ?v_70) (or (< ?v_47 5) ?v_74) (or (< (- t_B_ra_rb_gb4_2 t_A_ra_ga4_gb1_1) 5) ?v_74) (or ?v_98 ?v_46) (or ?v_99 ?v_100) ?v_67 ?v_91 (or (< (- t_C_rb_ga1_gc4_3 t_B_ra_rb_gb4_2) 4) ?v_52) (or ?v_101 ?v_102) ?v_67 ?v_91)))))))))))))))))))))))))))))))))))))))
(check-sat)
(exit)
